# Solution for model GasLib-40
# Objective value = 4.3621886720196386e+01
loadshed[innode_1] 0
loadshed[innode_2] 0
loadshed[innode_3] 0
loadshed[innode_4] 0
loadshed[innode_5] 0
loadshed[innode_6] 0
loadshed[innode_7] 0
loadshed[innode_8] 0
loadshed[source_1] -1.0457734335823266e-01
loadshed[source_2] 0.055799208440518
loadshed[source_3] 3.2470836499489164e-01
loadshed[sink_1] 0
loadshed[sink_2] 0
loadshed[sink_3] 0
loadshed[sink_4] 0
loadshed[sink_5] 0
loadshed[sink_6] 0
loadshed[sink_7] 0
loadshed[sink_8] 0
loadshed[sink_9] 0
loadshed[sink_10] 0
loadshed[sink_11] 0
loadshed[sink_12] 1
loadshed[sink_13] 0
loadshed[sink_14] 0
loadshed[sink_15] 0
loadshed[sink_16] 0
loadshed[sink_17] 0
loadshed[sink_18] 0
loadshed[sink_19] 0
loadshed[sink_20] 0
loadshed[sink_21] 1
loadshed[sink_22] 0
loadshed[sink_23] 0
loadshed[sink_24] 6.6732555741328226e-01
loadshed[sink_25] 0
loadshed[sink_26] 0
loadshed[sink_27] 0
loadshed[sink_28] 0
loadshed[sink_29] 0
flow[source_1,sink_3] 1.7462293903854282e+02
flow[innode_1,sink_16] 1.6354166666666970e+01
flow[innode_6,sink_13] 7.7221245076999594e+00
flow[sink_13,sink_14] -8.6320421589667085e+00
flow[sink_14,sink_10] -2.4986208825633376e+01
flow[sink_25,sink_26] 1.2621563155331282e+02
flow[sink_26,sink_9] 1.6354166666669244e+01
flow[sink_9,sink_18] 0
flow[sink_26,sink_4] 9.3507298219977031e+01
flow[sink_4,sink_20] 0
flow[sink_18,sink_6] -1.6354166666667879e+01
flow[sink_25,innode_8] -1.4191460570520647e+02
flow[sink_6,sink_7] -6.5416666666666671e+01
flow[sink_6,sink_22] 3.2708333333333641e+01
flow[sink_7,sink_24] 5.4406132798036122e+00
flow[sink_22,sink_1] 1.6354166666666970e+01
flow[sink_24,sink_21] 0
flow[sink_21,sink_12] 0
flow[sink_7,sink_5] -8.7211446613138463e+01
flow[sink_5,sink_17] -1.0356561327980513e+02
flow[sink_17,sink_4] -7.7153131553310288e+01
flow[sink_17,sink_8] -4.2766648393161475e+01
flow[sink_3,sink_23] 16.3541666666697
flow[sink_8,sink_20] -5.9120815059828146e+01
flow[sink_25,sink_20] 7.5474981726495031e+01
flow[sink_25,sink_15] -8.3852298748968664e+01
flow[sink_15,sink_29] -5.6652366277262324e+01
flow[sink_29,sink_28] 1.6354166666667879e+01
flow[sink_29,sink_2] 5.9908265805039534e+01
flow[sink_2,sink_15] 4.3554099138372870e+01
flow[sink_29,innode_7] -1.4926896541563616e+02
flow[innode_4,sink_19] 0
flow[sink_19,innode_3] 3.6135457347479210e+01
flow[innode_4,innode_5] 1.0675704215896729e+02
flow[sink_27,innode_5] -1.0675704215896729e+02
flow[sink_27,sink_19] 9.0402875492300623e+01
flow[sink_10,sink_11] 3.2708333333333641e+01
flow[sink_10,innode_2] -3.7913251478154471e+01
flow[sink_10,innode_3] -3.6135457347479210e+01
flow[innode_6,sink_25] -7.7221245076999594e+00
flow[sink_11,innode_1] 1.6354166666666970e+01
flow[sink_19,innode_2] 3.7913251478154471e+01
flow[source_3,innode_4] 1.0675704215896729e+02
flow[source_2,innode_7] 1.4926896541563616e+02
flow[sink_3,innode_8] 1.4191460570520647e+02
pressure[innode_1] 7.5957374339620856e+01
pressure[innode_2] 7.8112947574701877e+01
pressure[innode_3] 7.8032929696302531e+01
pressure[innode_4] 81.01325
pressure[innode_5] 80.9398168770868
pressure[innode_6] 7.4954386061250290e+01
pressure[innode_7] 81.01325
pressure[innode_8] 8.0429552223174781e+01
pressure[source_1] 81.01325
pressure[source_2] 81.01325
pressure[source_3] 81.01325
pressure[sink_1] 4.2432543050574330e+00
pressure[sink_2] 7.5503345952211518e+01
pressure[sink_3] 8.0429552223174781e+01
pressure[sink_4] 5.4176333349901036e+01
pressure[sink_5] 4.3512905470929390e+01
pressure[sink_6] 6.3443319154448066e+00
pressure[sink_7] 7.2423468190449976e+00
pressure[sink_8] 5.2841491815415239e+01
pressure[sink_9] 6.5086254169337934e+01
pressure[sink_10] 76.1090756472244
pressure[sink_11] 7.5957374339620856e+01
pressure[sink_12] 1.01325
pressure[sink_13] 7.4911815279326234e+01
pressure[sink_14] 7.4927263054057121e+01
pressure[sink_15] 7.5361151417693563e+01
pressure[sink_16] 7.4935724504803176e+01
pressure[sink_17] 5.1227795066520819e+01
pressure[sink_18] 5.9076269726915669e+00
pressure[sink_19] 7.8112947574701877e+01
pressure[sink_20] 5.6961381193038875e+01
pressure[sink_21] 1.01325
pressure[sink_22] 5.3070234474124431e+00
pressure[sink_23] 80.264834211515
pressure[sink_24] 1.01325
pressure[sink_25] 7.4954386061250290e+01
pressure[sink_26] 6.6065093253280352e+01
pressure[sink_27] 8.0053930692970468e+01
pressure[sink_28] 7.6725607662014738e+01
pressure[sink_29] 7.7020889935631914e+01
interdiction[source_1,sink_3] 0
interdiction[innode_1,sink_16] 0
interdiction[innode_6,sink_13] 0
interdiction[sink_13,sink_14] 0
interdiction[sink_14,sink_10] 0
interdiction[sink_25,sink_26] 0
interdiction[sink_26,sink_9] 0
interdiction[sink_9,sink_18] 1
interdiction[sink_26,sink_4] 0
interdiction[sink_4,sink_20] 1
interdiction[sink_18,sink_6] 0
interdiction[sink_25,innode_8] 0
interdiction[sink_6,sink_7] 0
interdiction[sink_6,sink_22] 0
interdiction[sink_7,sink_24] 0
interdiction[sink_22,sink_1] 0
interdiction[sink_24,sink_21] 0
interdiction[sink_21,sink_12] 0
interdiction[sink_7,sink_5] 0
interdiction[sink_5,sink_17] 0
interdiction[sink_17,sink_4] 0
interdiction[sink_17,sink_8] 0
interdiction[sink_3,sink_23] 0
interdiction[sink_8,sink_20] 0
interdiction[sink_25,sink_20] 0
interdiction[sink_25,sink_15] 0
interdiction[sink_15,sink_29] 0
interdiction[sink_29,sink_28] 0
interdiction[sink_29,sink_2] 0
interdiction[sink_2,sink_15] 0
interdiction[sink_29,innode_7] 0
interdiction[innode_4,sink_19] 1
interdiction[sink_19,innode_3] 0
interdiction[innode_4,innode_5] 0
interdiction[sink_27,innode_5] 0
interdiction[sink_27,sink_19] 0
interdiction[sink_10,sink_11] 0
interdiction[sink_10,innode_2] 0
interdiction[sink_10,innode_3] 0
interdiction[innode_6,sink_25] 0
interdiction[sink_11,innode_1] 0
interdiction[sink_19,innode_2] 0
interdiction[source_3,innode_4] 0
interdiction[source_2,innode_7] 0
interdiction[sink_3,innode_8] 0
WCcheckFlow[source_1,sink_3] 39
WCcheckFlow[innode_1,sink_16] 1
WCcheckFlow[innode_6,sink_13] 13
WCcheckFlow[sink_13,sink_14] 12
WCcheckFlow[sink_14,sink_10] 11
WCcheckFlow[sink_25,sink_26] 15
WCcheckFlow[sink_26,sink_9] 1
WCcheckFlow[sink_9,sink_18] 0
WCcheckFlow[sink_26,sink_4] 13
WCcheckFlow[sink_4,sink_20] 0
WCcheckFlow[sink_18,sink_6] -1
WCcheckFlow[sink_25,innode_8] -36
WCcheckFlow[sink_6,sink_7] -4
WCcheckFlow[sink_6,sink_22] 2
WCcheckFlow[sink_7,sink_24] 3
WCcheckFlow[sink_22,sink_1] 1
WCcheckFlow[sink_24,sink_21] 2
WCcheckFlow[sink_21,sink_12] 1
WCcheckFlow[sink_7,sink_5] -8
WCcheckFlow[sink_5,sink_17] -9
WCcheckFlow[sink_17,sink_4] -12
WCcheckFlow[sink_17,sink_8] 2
WCcheckFlow[sink_3,sink_23] 1
WCcheckFlow[sink_8,sink_20] 1
WCcheckFlow[sink_25,sink_20] 0
WCcheckFlow[sink_25,sink_15] 6
WCcheckFlow[sink_15,sink_29] 5
WCcheckFlow[sink_29,sink_28] 1
WCcheckFlow[sink_29,sink_2] 1
WCcheckFlow[sink_2,sink_15] 0
WCcheckFlow[sink_29,innode_7] 2
WCcheckFlow[innode_4,sink_19] 0
WCcheckFlow[sink_19,innode_3] -5
WCcheckFlow[innode_4,innode_5] -2
WCcheckFlow[sink_27,innode_5] 3
WCcheckFlow[sink_27,sink_19] -4
WCcheckFlow[sink_10,sink_11] 3
WCcheckFlow[sink_10,innode_2] 1
WCcheckFlow[sink_10,innode_3] 6
WCcheckFlow[innode_6,sink_25] -14
WCcheckFlow[sink_11,innode_1] 2
WCcheckFlow[sink_19,innode_2] 0
WCcheckFlow[source_3,innode_4] -1
WCcheckFlow[source_2,innode_7] -1
WCcheckFlow[sink_3,innode_8] 37
